! BMK def2-TZVP def2/J RIJCOSX CPCM(Ethanol) TightSCF
%maxcore 1000
%base "rubrofusarin_bmk_solv_tddft"
%pal nprocs 16 end
%TDDFT nroots 5 tda False end
*xyzfile 0 1 rubrofusarin_gs_opt.xyz
