! RI-SCS-wPBEPP86 def2-TZVP/C def2-TZVP def2/J RIJCOSX TightSCF
%maxcore 1000
%base "Vitisin_B_ri-scs-wpbepp86_nosolv_tddft"
%pal nprocs 16 end
%TDDFT nroots 5 tda False end
*xyzfile 1 1 Vitisin_B_gs_opt.xyz
