! RKS def2/J  def2-TZVP RIJCOSX CPCM TightSCF
%cpcm epsilon 7.8 refrac 1.3993 end
%method method dft functional hyb_gga_xc_b97_k end
%maxcore 1000
%base "dihydroxanthommatin_bmk_solv_tddft"
%pal nprocs 16 end
%TDDFT nroots 5 tda False end
*xyzfile 0 1 dihydroxanthommatin_gs_opt.xyz
