! PBEh-3c def2/J RIJCOSX CPCM NormalSCF NormalOpt
%cpcm epsilon 7.8 refrac 1.3993 end
%maxcore 1000
%base "dihydroxanthommatin_gs_opt"
%pal nprocs 16 end
*xyzfile 0 1 dihydroxanthommatin_xtb.xyz

$new_job
! PBE0 def2-TZVP def2/J RIJCOSX TIGHTSCF CPCM
%cpcm epsilon 7.8 refrac 1.3993 end
%maxcore 1000
%base "dihydroxanthommatin_pbe0_solv_tddft"
%pal nprocs 16 end
%TDDFT nroots 5 tda False end
*xyzfile 0 1 dihydroxanthommatin_gs_opt.xyz
