! PBE0 def2-TZVP def2/J RIJCOSX TightSCF
%maxcore 1000
%base "maroxazinone_pbe0_nosolv_tddft"
%pal nprocs 16 end
%TDDFT nroots 5 tda False end
*xyzfile 0 1 maroxazinone_gs_opt.xyz
