! M06-2X def2-TZVP def2/J RIJCOSX TightSCF
%maxcore 1000
%base "damaurone_B_m06-2x_nosolv_tddft"
%pal nprocs 16 end
%TDDFT nroots 5 tda False end
*xyzfile 0 1 damaurone_B_gs_opt.xyz
