! CAM-B3LYP def2-TZVP def2/J RIJCOSX CPCM(Chloroform) TightSCF
%maxcore 1000
%base "bactobilin_cam-b3lyp_solv_tddft"
%pal nprocs 16 end
%TDDFT nroots 5 tda False end
*xyzfile 0 1 bactobilin_gs_opt.xyz
