! PBEh-3c def2/J RIJCOSX CPCM(Acetonitrile) NormalSCF NormalOpt
%maxcore 1000
%base "didemnimide_A_gs_opt"
%pal nprocs 16 end
*xyzfile 0 1 didemnimide_A_xtb.xyz

$new_job
! PBE0 def2-TZVP def2/J RIJCOSX TIGHTSCF CPCM(Acetonitrile)
%maxcore 1000
%base "didemnimide_A_pbe0_solv_tddft"
%pal nprocs 16 end
%TDDFT nroots 5 tda False end
*xyzfile 0 1 didemnimide_A_gs_opt.xyz
