! BMK def2-TZVP def2/J RIJCOSX CPCM(THF) TightSCF
%maxcore 1000
%base "7-isopropenyl-4-methylazulen-1-ylmethyl_stearate_bmk_solv_tddft"
%pal nprocs 16 end
%TDDFT nroots 5 tda False end
*xyzfile 0 1 7-isopropenyl-4-methylazulen-1-ylmethyl_stearate_gs_opt.xyz
