! PBEh-3c def2/J RIJCOSX CPCM(THF) NormalSCF NormalOpt
%maxcore 1000
%base "7-isopropenyl-4-methylazulen-1-ylmethyl_stearate_gs_opt"
%pal nprocs 16 end
*xyzfile 0 1 7-isopropenyl-4-methylazulen-1-ylmethyl_stearate_xtb.xyz

$new_job
! PBE0 def2-TZVP def2/J RIJCOSX TIGHTSCF CPCM(THF)
%maxcore 1000
%base "7-isopropenyl-4-methylazulen-1-ylmethyl_stearate_pbe0_solv_tddft"
%pal nprocs 16 end
%TDDFT nroots 5 tda False end
*xyzfile 0 1 7-isopropenyl-4-methylazulen-1-ylmethyl_stearate_gs_opt.xyz
