! wB97X-D4 def2-TZVP def2/J RIJCOSX CPCM(THF) TightSCF
%maxcore 1000
%base "7-isopropenyl-4-methylazulen-1-ylmethyl_stearate_wb97x-d4_solv_polar"
%pal nprocs 16 end
%elprop Polar 1 end
*xyzfile 0 1 7-isopropenyl-4-methylazulen-1-ylmethyl_stearate_gs_opt.xyz
