! PBE0 def2-TZVP def2/J RIJCOSX TightSCF
%maxcore 1000
%base "riccionidin_A_pbe0_nosolv_tddft"
%pal nprocs 16 end
%TDDFT nroots 5 tda False end
*xyzfile 1 1 riccionidin_A_gs_opt.xyz
