! PBEh-3c def2/J RIJCOSX CPCM(Ethanol) NormalSCF NormalOpt
%maxcore 1000
%base "atromentic_acid_gs_opt"
%pal nprocs 16 end
*xyzfile 0 1 atromentic_acid_xtb.xyz

$new_job
! PBE0 def2-TZVP def2/J RIJCOSX TIGHTSCF CPCM(Ethanol)
%maxcore 1000
%base "atromentic_acid_pbe0_solv_tddft"
%pal nprocs 16 end
%TDDFT nroots 5 tda False end
*xyzfile 0 1 atromentic_acid_gs_opt.xyz
