! wB97X-D4 def2-TZVP def2/J RIJCOSX TightSCF
%maxcore 1000
%base "1-hydroxy-9,10-anthraquinone_wb97x-d4_nosolv_tddft"
%pal nprocs 16 end
%TDDFT nroots 5 tda True end
*xyzfile 0 1 1-hydroxy-9,10-anthraquinone_gs_opt.xyz
