! wB97X-D4 def2-TZVP def2/J RIJCOSX TightSCF
%maxcore 1000
%base "6-cyano-5-methoxy-12-methylindolo_23-a_carbazole_wb97x-d4_nosolv_tddft"
%pal nprocs 16 end
%TDDFT nroots 5 tda True end
*xyzfile 0 1 6-cyano-5-methoxy-12-methylindolo_23-a_carbazole_gs_opt.xyz
