! wB97X-D4 def2-TZVP def2/J RIJCOSX CPCM(THF) TightSCF
%maxcore 1000
%base "6-cyano-5-methoxy-12-methylindolo_23-a_carbazole_wb97x-d4_solv_polar"
%pal nprocs 16 end
%elprop Polar 1 end
*xyzfile 0 1 6-cyano-5-methoxy-12-methylindolo_23-a_carbazole_gs_opt.xyz
