! RI-SCS-wPBEPP86 def2-TZVP/C def2-TZVP def2/J RIJCOSX TightSCF
%maxcore 1000
%base "6-cyano-5-methoxy-12-methylindolo_23-a_carbazole_ri-scs-wpbepp86_nosolv_tddft"
%pal nprocs 16 end
%TDDFT nroots 5 tda False end
*xyzfile 0 1 6-cyano-5-methoxy-12-methylindolo_23-a_carbazole_gs_opt.xyz
