! M06-2X def2-TZVP def2/J RIJCOSX CPCM(Chloroform) TightSCF
%maxcore 1000
%base "stellettin_N_m06-2x_solv_tddft"
%pal nprocs 16 end
%TDDFT nroots 5 tda False end
*xyzfile 0 1 stellettin_N_gs_opt.xyz
