! M06-2X def2-TZVP def2/J RIJCOSX CPCM(Ethanol) TightSCF
%maxcore 1000
%base "pelargonidin_m06-2x_solv_tddft"
%pal nprocs 16 end
%TDDFT nroots 5 tda False end
*xyzfile 1 1 pelargonidin_gs_opt.xyz
