! M06-2X def2-TZVP def2/J RIJCOSX TightSCF
%maxcore 1000
%base "urdamycin_H_m06-2x_nosolv_tddft"
%pal nprocs 16 end
%TDDFT nroots 5 tda False end
*xyzfile 0 1 urdamycin_H_gs_opt.xyz
