! M06-2X def2-TZVP def2/J RIJCOSX CPCM(Ethylacetate) TightSCF
%maxcore 1000
%base "4,3-dibromprodigiosin_m06-2x_solv_tddft"
%pal nprocs 16 end
%TDDFT nroots 5 tda False end
*xyzfile 0 1 4,3-dibromprodigiosin_gs_opt.xyz
