! PBEh-3c def2/J RIJCOSX CPCM(Ethanol) NormalSCF NormalOpt
%maxcore 1000
%base "peonidin_gs_opt"
%pal nprocs 16 end
*xyzfile 1 1 peonidin_xtb.xyz

$new_job
! PBE0 def2-TZVP def2/J RIJCOSX TIGHTSCF CPCM(Ethanol)
%maxcore 1000
%base "peonidin_pbe0_solv_tddft"
%pal nprocs 16 end
%TDDFT nroots 5 tda False end
*xyzfile 1 1 peonidin_gs_opt.xyz
