! BMK def2-TZVP def2/J RIJCOSX CPCM(Water) TightSCF
%maxcore 1000
%base "variegatic_acid_oxidized_bmk_solv_tddft"
%pal nprocs 16 end
%TDDFT nroots 5 tda False end
*xyzfile 0 1 variegatic_acid_oxidized_gs_opt.xyz
