! wB97X-D4 def2-TZVP def2/J RIJCOSX TightSCF
%maxcore 1000
%base "arnoamine_C_wb97x-d4_nosolv_polar"
%pal nprocs 16 end
%elprop Polar 1 end
*xyzfile 0 1 arnoamine_C_gs_opt.xyz
