! RI-SCS-PBE-QIDH def2-TZVP/C def2-TZVP def2/J RIJCOSX CPCM(Acetonitrile) TightSCF
%maxcore 1000
%base "chaetoxanthone_C_ri-scs-pbe-qidh_solv_tddft"
%pal nprocs 16 end
%TDDFT nroots 5 tda False end
*xyzfile 0 1 chaetoxanthone_C_gs_opt.xyz
