! BMK def2-TZVP def2/J RIJCOSX CPCM(DMSO) TightSCF
%maxcore 1000
%base "PP-R_bmk_solv_tddft"
%pal nprocs 16 end
%TDDFT nroots 5 tda False end
*xyzfile 0 1 PP-R_gs_opt.xyz
