! RKS def2-TZVP def2/J RIJCOSX TightSCF
%method method dft functional hyb_gga_xc_b97_k end
%maxcore 1000
%base "plectaniaxanthin_bmk_nosolv_tddft"
%pal nprocs 16 end
%TDDFT nroots 5 tda False end
*xyzfile 0 1 plectaniaxanthin_gs_opt.xyz
