! BMK def2-TZVP def2/J RIJCOSX CPCM(Water) TightSCF
%maxcore 1000
%base "fredericamycin_C_bmk_solv_tddft"
%pal nprocs 16 end
%TDDFT nroots 5 tda False end
*xyzfile 0 1 fredericamycin_C_gs_opt.xyz
