! RI-B2PLYP def2-TZVP/C def2-TZVP def2/J RIJCOSX CPCM(Pyridine) TightSCF
%maxcore 1000
%base "thelephoric_acid_ri-b2plyp_solv_tddft"
%pal nprocs 16 end
%TDDFT nroots 5 tda False end
*xyzfile 0 1 thelephoric_acid_gs_opt.xyz
