! BMK def2-TZVP def2/J RIJCOSX CPCM(THF) TightSCF
%maxcore 1000
%base "scytonemin_bmk_solv_tddft"
%pal nprocs 16 end
%TDDFT nroots 5 tda False end
*xyzfile 0 1 scytonemin_gs_opt.xyz
