! wB97X-D4 def2-TZVP def2/J RIJCOSX CPCM(Ethanol) TightSCF
%maxcore 1000
%base "rosacyanin_B_wb97x-d4_solv_tddft"
%pal nprocs 16 end
%TDDFT nroots 5 tda True end
*xyzfile 1 1 rosacyanin_B_gs_opt.xyz
