! wB97X-D4 def2-TZVP def2/J RIJCOSX CPCM(Acetone) TightSCF
%maxcore 1000
%base "staphyloxanthin_wb97x-d4_solv_polar"
%pal nprocs 16 end
%elprop Polar 1 end
*xyzfile 0 1 staphyloxanthin_gs_opt.xyz
