! RI-SCS-wPBEPP86 def2-TZVP/C def2-TZVP def2/J RIJCOSX TightSCF
%maxcore 1000
%base "genipocyanin_G1_ri-scs-wpbepp86_nosolv_tddft"
%pal nprocs 16 end
%TDDFT nroots 5 tda False end
*xyzfile 0 1 genipocyanin_G1_gs_opt.xyz
