! RI-B2PLYP def2-TZVP/C def2-TZVP def2/J RIJCOSX CPCM(Acetonitrile) TightSCF
%maxcore 1000
%base "stealthin_C_ri-b2plyp_solv_tddft"
%pal nprocs 16 end
%TDDFT nroots 5 tda False end
*xyzfile 0 1 stealthin_C_gs_opt.xyz
