! RKS def2-TZVP def2/J RIJCOSX TightSCF
%method method dft functional hyb_gga_xc_camh_b3lyp end
%maxcore 1000
%base "aloe-emodin_cam-b3lyp_nosolv_tddft"
%pal nprocs 16 end
%TDDFT nroots 5 tda False end
*xyzfile 0 1 aloe-emodin_gs_opt.xyz
