! wB97X-D4 def2-TZVP def2/J RIJCOSX CPCM(Acetonitrile) TightSCF
%maxcore 1000
%base "aloe-emodin_wb97x-d4_solv_tddft"
%pal nprocs 16 end
%TDDFT nroots 5 tda True end
*xyzfile 0 1 aloe-emodin_gs_opt.xyz
