! RKS def2-TZVP def2/J RIJCOSX TightSCF
%method method dft functional hyb_gga_xc_camh_b3lyp end
%maxcore 1000
%base "6Z,6Z-rhodoxanthin_cam-b3lyp_nosolv_tddft"
%pal nprocs 16 end
%TDDFT nroots 5 tda False end
*xyzfile 0 1 6Z,6Z-rhodoxanthin_gs_opt.xyz
