! CAM-B3LYP def2-TZVP def2/J RIJCOSX CPCM(Ethanol) TightSCF
%maxcore 1000
%base "delphinidin_cam-b3lyp_solv_tddft"
%pal nprocs 16 end
%TDDFT nroots 5 tda False end
*xyzfile 1 1 delphinidin_gs_opt.xyz
