! wB97X-D4 def2-TZVP def2/J RIJCOSX CPCM(Ethanol) TightSCF
%maxcore 1000
%base "purple_pigment_prodigiosine_derivative_wb97x-d4_solv_polar"
%pal nprocs 16 end
%elprop Polar 1 end
*xyzfile 0 1 purple_pigment_prodigiosine_derivative_gs_opt.xyz
