! RI-SCS-wPBEPP86 def2-TZVP/C def2-TZVP def2/J RIJCOSX CPCM(Ethanol) TightSCF
%maxcore 1000
%base "cyanidin_ri-scs-wpbepp86_solv_tddft"
%pal nprocs 16 end
%TDDFT nroots 5 tda False end
*xyzfile 1 1 cyanidin_gs_opt.xyz
