! M06-2X def2-TZVP def2/J RIJCOSX CPCM(DMSO) TightSCF
%maxcore 1000
%base "questiomycin_D_m06-2x_solv_tddft"
%pal nprocs 16 end
%TDDFT nroots 5 tda False end
*xyzfile 0 1 questiomycin_D_gs_opt.xyz
