! CAM-B3LYP def2-TZVP def2/J RIJCOSX CPCM(Water) TightSCF
%maxcore 1000
%base "aeruginosin_A_cam-b3lyp_solv_tddft"
%pal nprocs 16 end
%TDDFT nroots 5 tda False end
*xyzfile 1 1 aeruginosin_A_gs_opt.xyz
