! wB97X-D4 def2-TZVP def2/J RIJCOSX CPCM(Water) TightSCF
%maxcore 1000
%base "aeruginosin_A_wb97x-d4_solv_polar"
%pal nprocs 16 end
%elprop Polar 1 end
*xyzfile 1 1 aeruginosin_A_gs_opt.xyz
