! PBE0 def2-TZVP def2/J RIJCOSX TightSCF
%maxcore 1000
%base "mycenarubin_A_pbe0_nosolv_tddft"
%pal nprocs 16 end
%TDDFT nroots 5 tda False end
*xyzfile 0 1 mycenarubin_A_gs_opt.xyz
