! CAM-B3LYP def2-TZVP def2/J RIJCOSX CPCM(Water) TightSCF
%maxcore 1000
%base "crocin-1_cam-b3lyp_solv_tddft"
%pal nprocs 16 end
%TDDFT nroots 5 tda False end
*xyzfile 0 1 crocin-1_gs_opt.xyz
