! PBE0 ma-def2-TZVP def2/J RIJCOSX TightSCF
%maxcore 1000
%base "demethylaeruginosin_B_pbe0_nosolv_tddft"
%pal nprocs 16 end
%TDDFT nroots 5 tda False end
*xyzfile -1 1 demethylaeruginosin_B_gs_opt.xyz
