! RI-SCS-PBE-QIDH ma-def2-TZVP/C ma-def2-TZVP def2/J RIJCOSX CPCM(Water) TightSCF
%maxcore 1000
%base "demethylaeruginosin_B_ri-scs-pbe-qidh_solv_tddft"
%pal nprocs 16 end
%TDDFT nroots 5 tda False end
*xyzfile -1 1 demethylaeruginosin_B_gs_opt.xyz
