! wB97X-D4 ma-def2-TZVP def2/J RIJCOSX TightSCF
%maxcore 1000
%base "demethylaeruginosin_B_wb97x-d4_nosolv_tddft"
%pal nprocs 16 end
%TDDFT nroots 5 tda True end
*xyzfile -1 1 demethylaeruginosin_B_gs_opt.xyz
