! wB97X-D4 ma-def2-TZVP def2/J RIJCOSX TightSCF
%maxcore 1000
%base "demethylaeruginosin_B_wb97x-d4_nosolv_polar"
%pal nprocs 16 end
%elprop Polar 1 end
*xyzfile -1 1 demethylaeruginosin_B_gs_opt.xyz
