! RI-SCS-wPBEPP86 def2-TZVP/C def2-TZVP def2/J RIJCOSX CPCM(DMSO) TightSCF
%maxcore 1000
%base "questiomycin_E_ri-scs-wpbepp86_solv_tddft"
%pal nprocs 16 end
%TDDFT nroots 5 tda False end
*xyzfile 0 1 questiomycin_E_gs_opt.xyz
