! RI-B2PLYP def2-TZVP/C def2-TZVP def2/J RIJCOSX CPCM(Ethanol) TightSCF
%maxcore 1000
%base "rubellin_B_ri-b2plyp_solv_tddft"
%pal nprocs 16 end
%TDDFT nroots 5 tda False end
*xyzfile 0 1 rubellin_B_gs_opt.xyz
