! M06-2X def2-TZVP def2/J RIJCOSX CPCM(Ether) TightSCF
%maxcore 1000
%base "loroxanthin_m06-2x_solv_tddft"
%pal nprocs 16 end
%TDDFT nroots 5 tda False end
*xyzfile 0 1 loroxanthin_gs_opt.xyz
