! RI-SCS-wPBEPP86 def2-TZVP/C def2-TZVP def2/J RIJCOSX CPCM(CH2Cl2) TightSCF
%maxcore 1000
%base "draconin_red_ri-scs-wpbepp86_solv_tddft"
%pal nprocs 16 end
%TDDFT nroots 5 tda False end
*xyzfile 0 1 draconin_red_gs_opt.xyz
