! wB97X-D4 def2-TZVP def2/J RIJCOSX CPCM(Acetonitrile) TightSCF
%maxcore 1000
%base "lymphostin_wb97x-d4_solv_polar"
%pal nprocs 16 end
%elprop Polar 1 end
*xyzfile 0 1 lymphostin_gs_opt.xyz
