! wB97X-D4 def2-TZVP def2/J RIJCOSX CPCM(Methanol) TightSCF
%maxcore 1000
%base "altertoxin_wb97x-d4_solv_tddft"
%pal nprocs 16 end
%TDDFT nroots 5 tda False end
*xyzfile 0 1 altertoxin_gs_opt.xyz
