! RKS ma-def2-TZVP def2/J RIJCOSX TightSCF
%method method dft functional hyb_gga_xc_b97_k end
%maxcore 1000
%base "muscaflavin_bmk_nosolv_tddft"
%pal nprocs 16 end
%TDDFT nroots 5 tda False end
*xyzfile -2 1 muscaflavin_gs_opt.xyz
