! wB97X-D4 ma-def2-TZVP def2/J RIJCOSX CPCM(Water) TightSCF
%maxcore 1000
%base "muscaflavin_wb97x-d4_solv_polar"
%pal nprocs 16 end
%elprop Polar 1 end
*xyzfile -2 1 muscaflavin_gs_opt.xyz
