! wB97X-D4 def2-TZVP def2/J RIJCOSX TightSCF
%maxcore 1000
%base "TMC-256A1_wb97x-d4_nosolv_polar"
%pal nprocs 16 end
%elprop Polar 1 end
*xyzfile 0 1 TMC-256A1_gs_opt.xyz
