! RI-SCS-PBE-QIDH def2-TZVP/C def2-TZVP def2/J RIJCOSX TightSCF
%maxcore 1000
%base "lucidin-omega-methylether_ri-scs-pbe-qidh_nosolv_tddft"
%pal nprocs 16 end
%TDDFT nroots 5 tda False end
*xyzfile 0 1 lucidin-omega-methylether_gs_opt.xyz
