! M06-2X def2-TZVP def2/J RIJCOSX CPCM(CH2Cl2) TightSCF
%maxcore 1000
%base "scleroderris_blue_m06-2x_solv_tddft"
%pal nprocs 16 end
%TDDFT nroots 5 tda False end
*xyzfile 0 1 scleroderris_blue_gs_opt.xyz
