! wB97X-D4 def2-TZVP def2/J RIJCOSX CPCM(Methanol) TightSCF
%maxcore 1000
%base "laccaic_acid_F_wb97x-d4_solv_polar"
%pal nprocs 16 end
%elprop Polar 1 end
*xyzfile 0 1 laccaic_acid_F_gs_opt.xyz
