! RI-SCS-wPBEPP86 def2-TZVP/C def2-TZVP def2/J RIJCOSX CPCM(Chloroform) TightSCF
%maxcore 1000
%base "phaitanthrin_C_ri-scs-wpbepp86_solv_tddft"
%pal nprocs 16 end
%TDDFT nroots 5 tda False end
*xyzfile 0 1 phaitanthrin_C_gs_opt.xyz
