! PBEh-3c def2/J RIJCOSX CPCM NormalSCF NormalOpt
%cpcm epsilon 8.42 refrac 1.494 end
%maxcore 1000
%base "isoindigo_gs_opt"
%pal nprocs 16 end
*xyzfile 0 1 isoindigo_xtb.xyz

$new_job
! PBE0 def2-TZVP def2/J RIJCOSX TIGHTSCF CPCM
%cpcm epsilon 8.42 refrac 1.494 end
%maxcore 1000
%base "isoindigo_pbe0_solv_tddft"
%pal nprocs 16 end
%TDDFT nroots 5 tda False end
*xyzfile 0 1 isoindigo_gs_opt.xyz
