! wB97X-D4 def2-TZVP def2/J RIJCOSX CPCM TightSCF
%cpcm epsilon 8.42 refrac 1.494 end
%maxcore 1000
%base "isoindigo_wb97x-d4_solv_polar"
%pal nprocs 16 end
%elprop Polar 1 end
*xyzfile 0 1 isoindigo_gs_opt.xyz
