! RI-SCS-wPBEPP86 def2-TZVP/C def2-TZVP def2/J RIJCOSX CPCM TightSCF
%cpcm epsilon 8.42 refrac 1.494 end
%maxcore 1000
%base "isoindigo_ri-scs-wpbepp86_solv_tddft"
%pal nprocs 16 end
%TDDFT nroots 5 tda False end
*xyzfile 0 1 isoindigo_gs_opt.xyz
