! RI-B2PLYP def2-TZVP/C def2-TZVP def2/J RIJCOSX CPCM(Water) TightSCF
%maxcore 1000
%base "sanguinone_b_ri-b2plyp_solv_tddft"
%pal nprocs 16 end
%TDDFT nroots 5 tda False end
*xyzfile 0 1 sanguinone_b_gs_opt.xyz
