! RKS def2/J  def2-TZVP RIJCOSX CPCM TightSCF
%cpcm epsilon 8.42 refrac 1.494 end
%method method dft functional hyb_gga_xc_camh_b3lyp end
%maxcore 1000
%base "indirubin_cam-b3lyp_solv_tddft"
%pal nprocs 16 end
%TDDFT nroots 5 tda False end
*xyzfile 0 1 indirubin_gs_opt.xyz
