! wB97X-D4 def2-TZVP def2/J RIJCOSX CPCM TightSCF
%cpcm epsilon 8.42 refrac 1.494 end
%maxcore 1000
%base "indirubin_wb97x-d4_solv_tddft"
%pal nprocs 16 end
%TDDFT nroots 5 tda False end
*xyzfile 0 1 indirubin_gs_opt.xyz
