! wB97X-D4 def2-TZVP def2/J RIJCOSX CPCM(Ethanol) TightSCF
%maxcore 1000
%base "chaetomugilin_D_wb97x-d4_solv_polar"
%pal nprocs 16 end
%elprop Polar 1 end
*xyzfile 0 1 chaetomugilin_D_gs_opt.xyz
