! RI-SCS-PBE-QIDH def2-TZVP/C def2-TZVP def2/J RIJCOSX TightSCF
%maxcore 1000
%base "sphagnorubin_B_ri-scs-pbe-qidh_nosolv_tddft"
%pal nprocs 16 end
%TDDFT nroots 5 tda False end
*xyzfile 1 1 sphagnorubin_B_gs_opt.xyz
