! wB97X-D4 def2-TZVP def2/J RIJCOSX CPCM(Hexane) TightSCF
%maxcore 1000
%base "beta-cryptoxantin_wb97x-d4_solv_polar"
%pal nprocs 16 end
%elprop Polar 1 end
*xyzfile 0 1 beta-cryptoxantin_gs_opt.xyz
