! BMK def2-TZVP def2/J RIJCOSX CPCM(Hexane) TightSCF
%maxcore 1000
%base "diadinoxanthin_bmk_solv_tddft"
%pal nprocs 16 end
%TDDFT nroots 5 tda False end
*xyzfile 0 1 diadinoxanthin_gs_opt.xyz
