! RKS def2-TZVP def2/J RIJCOSX TightSCF
%method method dft functional hyb_gga_xc_camh_b3lyp end
%maxcore 1000
%base "parietinic_acid_methyl_ester_cam-b3lyp_nosolv_tddft"
%pal nprocs 16 end
%TDDFT nroots 5 tda False end
*xyzfile 0 1 parietinic_acid_methyl_ester_gs_opt.xyz
