! RI-B2PLYP def2-TZVP/C def2-TZVP def2/J RIJCOSX CPCM(CH2Cl2) TightSCF
%maxcore 1000
%base "phomoxanthone_A_ri-b2plyp_solv_tddft"
%pal nprocs 16 end
%TDDFT nroots 5 tda False end
*xyzfile 0 1 phomoxanthone_A_gs_opt.xyz
