! M06-2X def2-TZVP def2/J RIJCOSX CPCM(Acetone) TightSCF
%maxcore 1000
%base "aleuriaxanthin_m06-2x_solv_tddft"
%pal nprocs 16 end
%TDDFT nroots 5 tda False end
*xyzfile 0 1 aleuriaxanthin_gs_opt.xyz
