! PBEh-3c def2/J RIJCOSX CPCM(Acetone) NormalSCF NormalOpt
%maxcore 1000
%base "aleuriaxanthin_gs_opt"
%pal nprocs 16 end
*xyzfile 0 1 aleuriaxanthin_xtb.xyz

$new_job
! PBE0 def2-TZVP def2/J RIJCOSX TIGHTSCF CPCM(Acetone)
%maxcore 1000
%base "aleuriaxanthin_pbe0_solv_tddft"
%pal nprocs 16 end
%TDDFT nroots 5 tda False end
*xyzfile 0 1 aleuriaxanthin_gs_opt.xyz
