! wB97X-D4 def2-TZVP def2/J RIJCOSX CPCM(Chloroform) TightSCF
%maxcore 1000
%base "1-hydroxyphenazine_di-N-oxide_wb97x-d4_solv_polar"
%pal nprocs 16 end
%elprop Polar 1 end
*xyzfile 0 1 1-hydroxyphenazine_di-N-oxide_gs_opt.xyz
